
Gurobi 9.1.0 (win64) logging started Fri Dec 18 13:16:24 2020

Changed value of parameter LogFile to log/S76D6_heu.log
   Prev:   Default: 
Gurobi Optimizer version 9.1.0 build v9.1.0rc0 (win64)
Thread count: 6 physical cores, 12 logical processors, using up to 12 threads
Optimize a model with 195235 rows, 98267 columns and 766258 nonzeros
Model fingerprint: 0xb0f8b793
Variable types: 75 continuous, 98192 integer (98192 binary)
Coefficient statistics:
  Matrix range     [1e+00, 8e+01]
  Objective range  [2e+00, 9e+01]
  Bounds range     [1e+00, 1e+00]
  RHS range        [1e+00, 8e+01]
Presolve removed 99484 rows and 1275 columns
Presolve time: 0.64s
Presolved: 95751 rows, 96992 columns, 663034 nonzeros
Variable types: 75 continuous, 96917 integer (96900 binary)
Found heuristic solution: objective 3630.8567885

Deterministic concurrent LP optimizer: primal and dual simplex
Showing first log only...

Concurrent spin time: 0.00s

Solved with dual simplex

Root relaxation: objective 4.855258e+02, 1841 iterations, 0.44 seconds

    Nodes    |    Current Node    |     Objective Bounds      |     Work
 Expl Unexpl |  Obj  Depth IntInf | Incumbent    BestBd   Gap | It/Node Time

     0     0  485.52580    0  155 3630.85679  485.52580  86.6%     -    2s
H    0     0                    3427.1811168  485.52580  85.8%     -    9s
     0     0  485.52580    0  150 3427.18112  485.52580  85.8%     -   10s
H    0     0                    2223.7987452  485.52580  78.2%     -   32s
     0     0  485.52580    0  150 2223.79875  485.52580  78.2%     -   32s
     0     0  485.52580    0  151 2223.79875  485.52580  78.2%     -   33s
H    0     0                    2094.6022749  485.52580  76.8%     -   45s
     0     0  485.52580    0  151 2094.60227  485.52580  76.8%     -   45s
     0     0  485.52580    0  150 2094.60227  485.52580  76.8%     -   46s

Cutting planes:
  Gomory: 19
  MIR: 178
  RLT: 52

Explored 1 nodes (4498 simplex iterations) in 50.07 seconds
Thread count was 12 (of 12 available processors)

Solution count 4: 2094.6 2223.8 3427.18 3630.86 

Time limit reached
Best objective 2.094602274925e+03, best bound 4.855257973329e+02, gap 76.8201%

Gurobi 9.1.0 (win64) logging started Fri Dec 18 13:17:16 2020

Changed value of parameter LogFile to log/S76D6_heu.log
   Prev:   Default: 
Gurobi Optimizer version 9.1.0 build v9.1.0rc0 (win64)
Thread count: 6 physical cores, 12 logical processors, using up to 12 threads
Optimize a model with 68955 rows, 34731 columns and 270900 nonzeros
Model fingerprint: 0x55e84690
Variable types: 75 continuous, 34656 integer (34656 binary)
Coefficient statistics:
  Matrix range     [1e+00, 8e+01]
  Objective range  [2e+00, 9e+01]
  Bounds range     [1e+00, 1e+00]
  RHS range        [1e+00, 2e+02]
Presolve removed 35112 rows and 450 columns
Presolve time: 0.20s
Presolved: 33843 rows, 34281 columns, 234462 nonzeros
Variable types: 75 continuous, 34206 integer (34200 binary)

Deterministic concurrent LP optimizer: primal and dual simplex
Showing first log only...

Concurrent spin time: 0.00s

Solved with dual simplex

Root relaxation: objective 4.855258e+02, 805 iterations, 0.11 seconds

    Nodes    |    Current Node    |     Objective Bounds      |     Work
 Expl Unexpl |  Obj  Depth IntInf | Incumbent    BestBd   Gap | It/Node Time

     0     0  485.52580    0  150          -  485.52580      -     -    0s
     0     0  485.52580    0  154          -  485.52580      -     -    3s
     0     0  485.52580    0  154          -  485.52580      -     -    6s
     0     0  485.52580    0  152          -  485.52580      -     -    6s
     0     0  485.52580    0  152          -  485.52580      -     -    7s
     0     0  490.42125    0  146          -  490.42125      -     -    8s
     0     0  494.79226    0  159          -  494.79226      -     -    8s
     0     0  494.79226    0  156          -  494.79226      -     -    8s
     0     0  494.79226    0  155          -  494.79226      -     -    9s
     0     0  494.79226    0  158          -  494.79226      -     -   16s
     0     0  494.87476    0  193          -  494.87476      -     -   16s
     0     0  495.06845    0  196          -  495.06845      -     -   16s
     0     0  495.14658    0  194          -  495.14658      -     -   16s
     0     0  495.14658    0  194          -  495.14658      -     -   16s
     0     0  510.11365    0  193          -  510.11365      -     -   17s
     0     0  510.11365    0  191          -  510.11365      -     -   17s
     0     0  515.72135    0  198          -  515.72135      -     -   18s
     0     0  515.86299    0  197          -  515.86299      -     -   20s
     0     0  515.86299    0  205          -  515.86299      -     -   20s
     0     0  517.30198    0  220          -  517.30198      -     -   21s
     0     0  517.31083    0  211          -  517.31083      -     -   21s
     0     0  527.98747    0  280          -  527.98747      -     -   21s
     0     0  527.98747    0  285          -  527.98747      -     -   24s
     0     0  535.37351    0  269          -  535.37351      -     -   24s
     0     0  535.37351    0  269          -  535.37351      -     -   25s
     0     0  535.37351    0  222          -  535.37351      -     -   25s
     0     0  535.52865    0  175          -  535.52865      -     -   25s
     0     0  535.52865    0  177          -  535.52865      -     -   25s
     0     0  535.52865    0  110          -  535.52865      -     -   26s
     0     0  535.52865    0  118          -  535.52865      -     -   29s
     0     0  535.52865    0  185          -  535.52865      -     -   29s
     0     0  535.52865    0  174          -  535.52865      -     -   29s
     0     0  535.52865    0  130          -  535.52865      -     -   30s
     0     0  535.52865    0  130          -  535.52865      -     -   32s

Cutting planes:
  Gomory: 10
  MIR: 258
  RLT: 223

Explored 1 nodes (11476 simplex iterations) in 50.02 seconds
Thread count was 12 (of 12 available processors)

Solution count 0

Time limit reached
Best objective -, best bound 5.355286479793e+02, gap -

Gurobi 9.1.0 (win64) logging started Fri Dec 18 13:18:11 2020

Changed value of parameter LogFile to log/S76D6_heu.log
   Prev:   Default: 
Gurobi Optimizer version 9.1.0 build v9.1.0rc0 (win64)
Thread count: 6 physical cores, 12 logical processors, using up to 12 threads
Optimize a model with 183755 rows, 92491 columns and 722400 nonzeros
Model fingerprint: 0xb3415e56
Variable types: 75 continuous, 92416 integer (92416 binary)
Coefficient statistics:
  Matrix range     [1e+00, 8e+01]
  Objective range  [2e+00, 9e+01]
  Bounds range     [1e+00, 1e+00]
  RHS range        [1e+00, 8e+01]
Presolve removed 93632 rows and 1200 columns
Presolve time: 0.58s
Presolved: 90123 rows, 91291 columns, 625232 nonzeros
Variable types: 75 continuous, 91216 integer (91200 binary)
Found heuristic solution: objective 3630.8567885

Deterministic concurrent LP optimizer: primal and dual simplex
Showing first log only...

Concurrent spin time: 0.00s

Solved with dual simplex

Root relaxation: objective 4.855258e+02, 1900 iterations, 0.42 seconds

    Nodes    |    Current Node    |     Objective Bounds      |     Work
 Expl Unexpl |  Obj  Depth IntInf | Incumbent    BestBd   Gap | It/Node Time

     0     0  485.52580    0  150 3630.85679  485.52580  86.6%     -    2s
H    0     0                    3387.4204580  485.52580  85.7%     -    8s
     0     0  485.52580    0  152 3387.42046  485.52580  85.7%     -    9s
H    0     0                    2454.7607549  485.52580  80.2%     -   32s
     0     0  485.52580    0  152 2454.76075  485.52580  80.2%     -   32s
     0     0  485.52580    0  152 2454.76075  485.52580  80.2%     -   33s
H    0     0                    2306.6553538  485.52580  79.0%     -   43s
     0     0  485.52580    0  152 2306.65535  485.52580  79.0%     -   43s
     0     0  485.52580    0  150 2306.65535  485.52580  79.0%     -   45s
     0     0  485.52580    0  150 2306.65535  485.52580  79.0%     -   45s
     0     0  485.52580    0  150 2306.65535  485.52580  79.0%     -   46s
     0     0  485.52580    0  150 2306.65535  485.52580  79.0%     -   48s

Cutting planes:
  Gomory: 11
  MIR: 168
  RLT: 52

Explored 1 nodes (5511 simplex iterations) in 50.13 seconds
Thread count was 12 (of 12 available processors)

Solution count 4: 2306.66 2454.76 3387.42 3630.86 

Time limit reached
Best objective 2.306655353771e+03, best bound 4.855257973329e+02, gap 78.9511%

Gurobi 9.1.0 (win64) logging started Fri Dec 18 13:19:04 2020

Changed value of parameter LogFile to log/S76D6_heu.log
   Prev:   Default: 
Gurobi Optimizer version 9.1.0 build v9.1.0rc0 (win64)
Thread count: 6 physical cores, 12 logical processors, using up to 12 threads
Optimize a model with 114875 rows, 57835 columns and 449980 nonzeros
Model fingerprint: 0x09799865
Variable types: 75 continuous, 57760 integer (57760 binary)
Coefficient statistics:
  Matrix range     [1e+00, 8e+01]
  Objective range  [2e+00, 9e+01]
  Bounds range     [1e+00, 1e+00]
  RHS range        [1e+00, 8e+01]
Presolve removed 58520 rows and 750 columns
Presolve time: 0.31s
Presolved: 56355 rows, 57085 columns, 389270 nonzeros
Variable types: 75 continuous, 57010 integer (57000 binary)

Deterministic concurrent LP optimizer: primal and dual simplex
Showing first log only...

Concurrent spin time: 0.00s

Solved with dual simplex

Root relaxation: objective 4.855258e+02, 1170 iterations, 0.21 seconds

    Nodes    |    Current Node    |     Objective Bounds      |     Work
 Expl Unexpl |  Obj  Depth IntInf | Incumbent    BestBd   Gap | It/Node Time

     0     0  485.52580    0  151          -  485.52580      -     -    1s
     0     0  485.52580    0  152          -  485.52580      -     -    6s
     0     0  485.52580    0  152          -  485.52580      -     -   16s
     0     0  485.52580    0  153          -  485.52580      -     -   17s
     0     0  485.52580    0  153          -  485.52580      -     -   23s
     0     0  485.52580    0  150          -  485.52580      -     -   24s
     0     0  485.52580    0  150          -  485.52580      -     -   24s
     0     0  485.52580    0  150          -  485.52580      -     -   25s
     0     0  485.52580    0  150          -  485.52580      -     -   26s
     0     2  492.50982    0  150          -  492.50982      -     -   44s
     7    14  492.50982    3  150          -  492.50982      -  86.1   45s
    63    67  492.50982   11  136          -  492.50982      -  51.2   50s

Cutting planes:
  Gomory: 1
  MIR: 172
  RLT: 105

Explored 67 nodes (7963 simplex iterations) in 50.06 seconds
Thread count was 12 (of 12 available processors)

Solution count 0

Time limit reached
Best objective -, best bound 4.925098227929e+02, gap -

Gurobi 9.1.0 (win64) logging started Fri Dec 18 13:19:57 2020

Changed value of parameter LogFile to log/S76D6_heu.log
   Prev:   Default: 
Gurobi Optimizer version 9.1.0 build v9.1.0rc0 (win64)
Thread count: 6 physical cores, 12 logical processors, using up to 12 threads
Optimize a model with 91915 rows, 46283 columns and 361808 nonzeros
Model fingerprint: 0x3a410051
Variable types: 75 continuous, 46208 integer (46208 binary)
Coefficient statistics:
  Matrix range     [1e+00, 8e+01]
  Objective range  [2e+00, 9e+01]
  Bounds range     [1e+00, 1e+00]
  RHS range        [1e+00, 1e+02]
Presolve removed 46816 rows and 600 columns
Presolve time: 0.24s
Presolved: 45099 rows, 45683 columns, 313216 nonzeros
Variable types: 75 continuous, 45608 integer (45600 binary)

Deterministic concurrent LP optimizer: primal and dual simplex
Showing first log only...

Concurrent spin time: 0.00s

Solved with dual simplex

Root relaxation: objective 4.855258e+02, 1004 iterations, 0.16 seconds

    Nodes    |    Current Node    |     Objective Bounds      |     Work
 Expl Unexpl |  Obj  Depth IntInf | Incumbent    BestBd   Gap | It/Node Time

     0     0  485.52580    0  150          -  485.52580      -     -    0s
     0     0  485.52580    0  150          -  485.52580      -     -    5s
     0     0  485.52580    0  158          -  485.52580      -     -    8s
     0     0  485.52580    0  152          -  485.52580      -     -    9s
     0     0  485.52580    0  152          -  485.52580      -     -   14s
     0     0  485.52580    0  150          -  485.52580      -     -   15s
     0     0  485.52580    0  150          -  485.52580      -     -   16s
     0     2  492.51484    0  150          -  492.51484      -     -   31s
    38    47  492.51484    6  145          -  492.51484      -  58.9   35s
   103   117  492.51484   15  155          -  492.51484      -  49.5   40s
   163   181  492.51484   23  149          -  492.51484      -  50.2   45s
   246   252  492.51484   34  135          -  492.51484      -  53.8   50s

Cutting planes:
  Gomory: 4
  MIR: 230
  RLT: 87

Explored 253 nodes (17745 simplex iterations) in 50.09 seconds
Thread count was 12 (of 12 available processors)

Solution count 0

Time limit reached
Best objective -, best bound 4.925148363195e+02, gap -

Gurobi 9.1.0 (win64) logging started Fri Dec 18 13:20:50 2020

Changed value of parameter LogFile to log/S76D6_heu.log
   Prev:   Default: 
Gurobi Optimizer version 9.1.0 build v9.1.0rc0 (win64)
Thread count: 6 physical cores, 12 logical processors, using up to 12 threads
Optimize a model with 114875 rows, 57835 columns and 452260 nonzeros
Model fingerprint: 0x2699212e
Variable types: 75 continuous, 57760 integer (57760 binary)
Coefficient statistics:
  Matrix range     [1e+00, 8e+01]
  Objective range  [2e+00, 9e+01]
  Bounds range     [1e+00, 1e+00]
  RHS range        [1e+00, 8e+01]
Presolve removed 58520 rows and 750 columns
Presolve time: 0.33s
Presolved: 56355 rows, 57085 columns, 391520 nonzeros
Variable types: 75 continuous, 57010 integer (57000 binary)

Deterministic concurrent LP optimizer: primal and dual simplex
Showing first log only...

Concurrent spin time: 0.00s

Solved with dual simplex

Root relaxation: objective 4.855258e+02, 1330 iterations, 0.23 seconds

    Nodes    |    Current Node    |     Objective Bounds      |     Work
 Expl Unexpl |  Obj  Depth IntInf | Incumbent    BestBd   Gap | It/Node Time

     0     0  485.52580    0  154          -  485.52580      -     -    1s
     0     0  485.52580    0  154          -  485.52580      -     -    6s
     0     0  485.52580    0  154          -  485.52580      -     -   11s
     0     0  485.52580    0  154          -  485.52580      -     -   12s
     0     0  485.52580    0  154          -  485.52580      -     -   16s
     0     0  485.52580    0  152          -  485.52580      -     -   17s
H    0     0                    4010.2116993  485.52580  87.9%     -   17s
     0     0  485.52580    0  150 4010.21170  485.52580  87.9%     -   18s
H    0     0                    2098.0164493  492.44303  76.5%     -   40s
     0     2  492.44303    0  150 2098.01645  492.44303  76.5%     -   42s
    13    20  492.44303    4  150 2098.01645  492.44303  76.5%  67.2   45s
H   31    38                    1688.2752334  492.44303  70.8%   102   49s
    45    54  494.07505    7  150 1688.27523  492.44303  70.8%   105   50s

Cutting planes:
  Learned: 4
  Gomory: 35
  MIR: 238
  RLT: 79

Explored 53 nodes (9379 simplex iterations) in 50.09 seconds
Thread count was 12 (of 12 available processors)

Solution count 3: 1688.28 2098.02 4010.21 

Time limit reached
Best objective 1.688275233371e+03, best bound 4.924430338026e+02, gap 70.8316%

Gurobi 9.1.0 (win64) logging started Fri Dec 18 13:23:02 2020

Changed value of parameter LogFile to log/S76D6_heu.log
   Prev:   Default: 
Gurobi Optimizer version 9.1.0 build v9.1.0rc0 (win64)
Thread count: 6 physical cores, 12 logical processors, using up to 12 threads
Optimize a model with 195235 rows, 98267 columns and 766258 nonzeros
Model fingerprint: 0xb0f8b793
Variable types: 75 continuous, 98192 integer (98192 binary)
Coefficient statistics:
  Matrix range     [1e+00, 8e+01]
  Objective range  [2e+00, 9e+01]
  Bounds range     [1e+00, 1e+00]
  RHS range        [1e+00, 8e+01]
Presolve removed 99484 rows and 1275 columns
Presolve time: 0.68s
Presolved: 95751 rows, 96992 columns, 663034 nonzeros
Variable types: 75 continuous, 96917 integer (96900 binary)
Found heuristic solution: objective 3630.8567885

Deterministic concurrent LP optimizer: primal and dual simplex
Showing first log only...

Concurrent spin time: 0.00s

Solved with dual simplex

Root relaxation: objective 4.855258e+02, 1841 iterations, 0.44 seconds

    Nodes    |    Current Node    |     Objective Bounds      |     Work
 Expl Unexpl |  Obj  Depth IntInf | Incumbent    BestBd   Gap | It/Node Time

     0     0  485.52580    0  155 3630.85679  485.52580  86.6%     -    2s
H    0     0                    3427.1811168  485.52580  85.8%     -    9s
     0     0  485.52580    0  150 3427.18112  485.52580  85.8%     -   10s
H    0     0                    2223.7987452  485.52580  78.2%     -   32s
     0     0  485.52580    0  150 2223.79875  485.52580  78.2%     -   32s
     0     0  485.52580    0  151 2223.79875  485.52580  78.2%     -   33s
H    0     0                    2094.6022749  485.52580  76.8%     -   45s
     0     0  485.52580    0  151 2094.60227  485.52580  76.8%     -   45s
     0     0  485.52580    0  150 2094.60227  485.52580  76.8%     -   46s
     0     0  485.52580    0  150 2094.60227  485.52580  76.8%     -   50s
     0     0  485.52580    0  150 2094.60227  485.52580  76.8%     -   51s
     0     0  485.52580    0  150 2094.60227  485.52580  76.8%     -   54s
     0     2  485.52580    0  150 2094.60227  485.52580  76.8%     -   71s
    13    20  485.63273    4  150 2094.60227  485.52861  76.8%  82.7   76s
H   31    38                    1627.6757169  485.55080  70.2%  56.9  120s
H   33    38                    1399.8831641  485.55080  65.3%  56.9  120s
H   36    38                    1055.5761567  485.55080  54.0%  59.2  120s

Cutting planes:
  Learned: 2
  Gomory: 30
  MIR: 220
  RLT: 70

Explored 37 nodes (7894 simplex iterations) in 120.16 seconds
Thread count was 12 (of 12 available processors)

Solution count 7: 1055.58 1399.88 1627.68 ... 3630.86

Time limit reached
Best objective 1.055576156722e+03, best bound 4.855507972417e+02, gap 54.0013%

Gurobi 9.1.0 (win64) logging started Fri Dec 18 13:25:04 2020

Changed value of parameter LogFile to log/S76D6_heu.log
   Prev:   Default: 
Gurobi Optimizer version 9.1.0 build v9.1.0rc0 (win64)
Thread count: 6 physical cores, 12 logical processors, using up to 12 threads
Optimize a model with 68955 rows, 34731 columns and 270900 nonzeros
Model fingerprint: 0x55e84690
Variable types: 75 continuous, 34656 integer (34656 binary)
Coefficient statistics:
  Matrix range     [1e+00, 8e+01]
  Objective range  [2e+00, 9e+01]
  Bounds range     [1e+00, 1e+00]
  RHS range        [1e+00, 2e+02]
Presolve removed 35112 rows and 450 columns
Presolve time: 0.21s
Presolved: 33843 rows, 34281 columns, 234462 nonzeros
Variable types: 75 continuous, 34206 integer (34200 binary)

Deterministic concurrent LP optimizer: primal and dual simplex
Showing first log only...

Concurrent spin time: 0.00s

Solved with dual simplex

Root relaxation: objective 4.855258e+02, 805 iterations, 0.11 seconds

    Nodes    |    Current Node    |     Objective Bounds      |     Work
 Expl Unexpl |  Obj  Depth IntInf | Incumbent    BestBd   Gap | It/Node Time

     0     0  485.52580    0  150          -  485.52580      -     -    0s
     0     0  485.52580    0  154          -  485.52580      -     -    3s
     0     0  485.52580    0  154          -  485.52580      -     -    5s
     0     0  485.52580    0  152          -  485.52580      -     -    6s
     0     0  485.52580    0  152          -  485.52580      -     -    6s
     0     0  490.42125    0  146          -  490.42125      -     -    7s
     0     0  494.79226    0  159          -  494.79226      -     -    8s
     0     0  494.79226    0  156          -  494.79226      -     -    8s
     0     0  494.79226    0  155          -  494.79226      -     -    8s
     0     0  494.79226    0  158          -  494.79226      -     -   14s
     0     0  494.87476    0  193          -  494.87476      -     -   14s
     0     0  495.06845    0  196          -  495.06845      -     -   14s
     0     0  495.14658    0  194          -  495.14658      -     -   15s
     0     0  495.14658    0  194          -  495.14658      -     -   15s
     0     0  510.11365    0  193          -  510.11365      -     -   15s
     0     0  510.11365    0  191          -  510.11365      -     -   15s
     0     0  515.72135    0  198          -  515.72135      -     -   16s
     0     0  515.86299    0  197          -  515.86299      -     -   17s
     0     0  515.86299    0  205          -  515.86299      -     -   17s
     0     0  517.30198    0  220          -  517.30198      -     -   18s
     0     0  517.31083    0  211          -  517.31083      -     -   18s
     0     0  527.98747    0  280          -  527.98747      -     -   18s
     0     0  527.98747    0  285          -  527.98747      -     -   20s
     0     0  535.37351    0  269          -  535.37351      -     -   21s
     0     0  535.37351    0  269          -  535.37351      -     -   21s
     0     0  535.37351    0  222          -  535.37351      -     -   21s
     0     0  535.52865    0  175          -  535.52865      -     -   21s
     0     0  535.52865    0  177          -  535.52865      -     -   21s
     0     0  535.52865    0  110          -  535.52865      -     -   22s
     0     0  535.52865    0  118          -  535.52865      -     -   24s
     0     0  535.52865    0  185          -  535.52865      -     -   25s
     0     0  535.52865    0  174          -  535.52865      -     -   25s
     0     0  535.52865    0  130          -  535.52865      -     -   26s
     0     0  535.52865    0  130          -  535.52865      -     -   28s
     0     2  537.06309    0  130          -  537.06309      -     -   51s
     7    14  537.06309    3  126          -  537.06309      -   284   55s
    19    26  537.06309    4   78          -  537.06309      -   195   62s
    31    43  537.06309    5  179          -  537.06309      -   196   65s
    69    78  537.06309    9  191          -  537.06309      -   124   70s
   124   150  537.06309   13  180          -  537.06309      -   116   76s
   206   236  537.06309   26  179          -  537.06309      -   111   80s
   289   318  545.33984   36  149          -  537.06309      -   108   85s
   399   429  557.63421   50  129          -  537.06309      -   101   90s
   551   558  566.51791   62  124          -  537.06309      -  93.1   95s
   705   677  578.29269   80  137          -  537.06309      -  89.8  100s
   924   864  588.20620  107   91          -  537.06309      -  83.0  106s
  1070  1013  601.32811  122  105          -  537.06309      -  81.1  111s
  1349  1222  631.67590  145   99          -  537.06309      -  71.9  115s
  1687  1442  698.83977  178   45          -  537.06309      -  64.5  120s

Cutting planes:
  Gomory: 10
  MIR: 274
  RLT: 229

Explored 1837 nodes (124047 simplex iterations) in 120.07 seconds
Thread count was 12 (of 12 available processors)

Solution count 0

Time limit reached
Best objective -, best bound 5.370630877248e+02, gap -

Gurobi 9.1.0 (win64) logging started Fri Dec 18 13:27:09 2020

Changed value of parameter LogFile to log/S76D6_heu.log
   Prev:   Default: 
Gurobi Optimizer version 9.1.0 build v9.1.0rc0 (win64)
Thread count: 6 physical cores, 12 logical processors, using up to 12 threads
Optimize a model with 183755 rows, 92491 columns and 722400 nonzeros
Model fingerprint: 0xb3415e56
Variable types: 75 continuous, 92416 integer (92416 binary)
Coefficient statistics:
  Matrix range     [1e+00, 8e+01]
  Objective range  [2e+00, 9e+01]
  Bounds range     [1e+00, 1e+00]
  RHS range        [1e+00, 8e+01]
Presolve removed 93632 rows and 1200 columns
Presolve time: 0.58s
Presolved: 90123 rows, 91291 columns, 625232 nonzeros
Variable types: 75 continuous, 91216 integer (91200 binary)
Found heuristic solution: objective 3630.8567885

Deterministic concurrent LP optimizer: primal and dual simplex
Showing first log only...

Concurrent spin time: 0.00s

Solved with dual simplex

Root relaxation: objective 4.855258e+02, 1900 iterations, 0.38 seconds

    Nodes    |    Current Node    |     Objective Bounds      |     Work
 Expl Unexpl |  Obj  Depth IntInf | Incumbent    BestBd   Gap | It/Node Time

     0     0  485.52580    0  150 3630.85679  485.52580  86.6%     -    2s
H    0     0                    3387.4204580  485.52580  85.7%     -    9s
     0     0  485.52580    0  152 3387.42046  485.52580  85.7%     -   10s
H    0     0                    2454.7607549  485.52580  80.2%     -   33s
     0     0  485.52580    0  152 2454.76075  485.52580  80.2%     -   33s
     0     0  485.52580    0  152 2454.76075  485.52580  80.2%     -   34s
H    0     0                    2306.6553538  485.52580  79.0%     -   45s
     0     0  485.52580    0  152 2306.65535  485.52580  79.0%     -   45s
     0     0  485.52580    0  150 2306.65535  485.52580  79.0%     -   46s
     0     0  485.52580    0  150 2306.65535  485.52580  79.0%     -   46s
     0     0  485.52580    0  150 2306.65535  485.52580  79.0%     -   47s
     0     0  485.52580    0  150 2306.65535  485.52580  79.0%     -   49s
     0     2  485.52580    0  150 2306.65535  485.52580  79.0%     -   79s
     1     4  485.52580    1  150 2306.65535  485.52580  79.0%   226   80s
    25    30  489.67153    5  150 2306.65535  485.60394  78.9%  54.8   85s
H   31    35                    1270.7854956  485.60394  61.8%  44.8  108s
    45    44  489.75209    7  148 1270.78550  485.60394  61.8%  41.1  110s
H   62    55                    1228.9370014  485.60394  60.5%  51.9  113s
    80    69  495.45627   11  148 1228.93700  485.60394  60.5%  56.0  116s
H  101    90                    1220.4038531  485.60394  60.2%  61.1  119s
H  103    90                    1198.4780222  485.60394  59.5%  61.4  119s
H  104    90                    1184.8618513  485.60394  59.0%  61.1  119s
   113    98  490.46116   14  146 1184.86185  485.60394  59.0%  58.9  120s

Cutting planes:
  Learned: 2
  Gomory: 12
  MIR: 189
  RLT: 52

Explored 122 nodes (12605 simplex iterations) in 120.17 seconds
Thread count was 12 (of 12 available processors)

Solution count 9: 1184.86 1198.48 1220.4 ... 3630.86

Time limit reached
Best objective 1.184861851262e+03, best bound 4.856039393267e+02, gap 59.0160%

Gurobi 9.1.0 (win64) logging started Fri Dec 18 13:29:12 2020

Changed value of parameter LogFile to log/S76D6_heu.log
   Prev:   Default: 
Gurobi Optimizer version 9.1.0 build v9.1.0rc0 (win64)
Thread count: 6 physical cores, 12 logical processors, using up to 12 threads
Optimize a model with 114875 rows, 57835 columns and 449980 nonzeros
Model fingerprint: 0x09799865
Variable types: 75 continuous, 57760 integer (57760 binary)
Coefficient statistics:
  Matrix range     [1e+00, 8e+01]
  Objective range  [2e+00, 9e+01]
  Bounds range     [1e+00, 1e+00]
  RHS range        [1e+00, 8e+01]
Presolve removed 58520 rows and 750 columns
Presolve time: 0.35s
Presolved: 56355 rows, 57085 columns, 389270 nonzeros
Variable types: 75 continuous, 57010 integer (57000 binary)

Deterministic concurrent LP optimizer: primal and dual simplex
Showing first log only...

Concurrent spin time: 0.02s

Solved with dual simplex

Root relaxation: objective 4.855258e+02, 1170 iterations, 0.18 seconds

    Nodes    |    Current Node    |     Objective Bounds      |     Work
 Expl Unexpl |  Obj  Depth IntInf | Incumbent    BestBd   Gap | It/Node Time

     0     0  485.52580    0  151          -  485.52580      -     -    1s
     0     0  485.52580    0  152          -  485.52580      -     -    6s
     0     0  485.52580    0  152          -  485.52580      -     -   14s
     0     0  485.52580    0  153          -  485.52580      -     -   15s
     0     0  485.52580    0  153          -  485.52580      -     -   20s
     0     0  485.52580    0  150          -  485.52580      -     -   21s
     0     0  485.52580    0  150          -  485.52580      -     -   21s
     0     0  485.52580    0  150          -  485.52580      -     -   22s
     0     0  485.52580    0  150          -  485.52580      -     -   23s
     0     2  492.50982    0  150          -  492.50982      -     -   40s
    38    46  492.50982    6  144          -  492.50982      -  52.4   45s
   110   118  492.50982   16  139          -  492.50982      -  54.0   50s
   162   165  495.92548   24  134          -  492.50982      -  64.8   55s
   210   210  501.44285   29  134          -  492.50982      -  76.4   60s
   274   269  505.89119   37  124          -  492.50982      -  80.5   65s
   359   345  521.41849   47  115          -  492.50982      -  82.5   70s
   476   415  537.53593   61  120          -  492.50982      -  77.1   75s
   600   520  544.91469   74   99          -  492.50982      -  73.1   81s
   729   624  553.88318   83   97          -  492.50982      -  69.5   86s
   867   705  566.05489   93   89          -  492.50982      -  63.7   90s
  1097   862  578.25141  116   83          -  492.50982      -  56.9   97s
  1225   986  589.09021  127   77          -  492.50982      -  55.0  101s
  1430  1155  597.52813  157   75          -  492.50982      -  51.6  106s
  1673  1289  670.42791  210   70          -  492.50982      -  47.9  111s
  1914  1470  684.50340  272   55          -  492.50982      -  45.9  117s
  2166  1582  670.07429  215   62          -  492.50982      -  43.1  120s

Cutting planes:
  Gomory: 1
  MIR: 172
  RLT: 105

Explored 2250 nodes (100336 simplex iterations) in 120.07 seconds
Thread count was 12 (of 12 available processors)

Solution count 0

Time limit reached
Best objective -, best bound 4.925098227929e+02, gap -

Gurobi 9.1.0 (win64) logging started Fri Dec 18 13:31:15 2020

Changed value of parameter LogFile to log/S76D6_heu.log
   Prev:   Default: 
Gurobi Optimizer version 9.1.0 build v9.1.0rc0 (win64)
Thread count: 6 physical cores, 12 logical processors, using up to 12 threads
Optimize a model with 91915 rows, 46283 columns and 361808 nonzeros
Model fingerprint: 0x3a410051
Variable types: 75 continuous, 46208 integer (46208 binary)
Coefficient statistics:
  Matrix range     [1e+00, 8e+01]
  Objective range  [2e+00, 9e+01]
  Bounds range     [1e+00, 1e+00]
  RHS range        [1e+00, 1e+02]
Presolve removed 46816 rows and 600 columns
Presolve time: 0.25s
Presolved: 45099 rows, 45683 columns, 313216 nonzeros
Variable types: 75 continuous, 45608 integer (45600 binary)

Deterministic concurrent LP optimizer: primal and dual simplex
Showing first log only...

Concurrent spin time: 0.00s

Solved with dual simplex

Root relaxation: objective 4.855258e+02, 1004 iterations, 0.16 seconds

    Nodes    |    Current Node    |     Objective Bounds      |     Work
 Expl Unexpl |  Obj  Depth IntInf | Incumbent    BestBd   Gap | It/Node Time

     0     0  485.52580    0  150          -  485.52580      -     -    0s
     0     0  485.52580    0  150          -  485.52580      -     -    4s
     0     0  485.52580    0  158          -  485.52580      -     -    7s
     0     0  485.52580    0  152          -  485.52580      -     -    8s
     0     0  485.52580    0  152          -  485.52580      -     -   12s
     0     0  485.52580    0  150          -  485.52580      -     -   13s
     0     0  485.52580    0  150          -  485.52580      -     -   13s
     0     2  492.51484    0  150          -  492.51484      -     -   28s
     7    14  492.51484    3  150          -  492.51484      -  95.1   30s
    73    84  492.51484   10  148          -  492.51484      -  53.2   35s
   116   131  492.51484   17  152          -  492.51484      -  48.9   40s
   219   232  492.51484   29  147          -  492.51484      -  51.6   45s
   313   323 infeasible   40               -  492.51484      -  61.2   50s
   474   439  525.79481   67  119          -  492.51484      -  59.2   55s
   637   547  559.14807   96  103          -  492.51484      -  55.3   61s
   783   648  586.99250  126   95          -  492.51484      -  53.3   65s
  1046   865  624.21398  162   96          -  492.51484      -  52.0   71s
  1259  1019  643.55871  209   71          -  492.51484      -  49.5   75s
  1608  1265  673.00439  262   54          -  492.51484      -  46.2   80s
  2151  1618  719.55579  345   48          -  492.51484      -  40.4   87s
  2455  1794  746.83178  397   57          -  492.51484      -  38.5   91s
  2735  2019  814.65215  436   45          -  492.51484      -  37.7   96s
  3233  2363  492.51484    8  146          -  492.51484      -  34.9  101s
  3714  2614  494.33799   34  135          -  492.51484      -  33.7  106s
  4182  2972  507.54511   46  128          -  492.51484      -  32.6  112s
  4481  3182  512.62611   59  134          -  492.51484      -  31.7  116s
  5133  3444  535.89136   88  103          -  492.51484      -  30.4  120s

Cutting planes:
  Gomory: 6
  MIR: 248
  RLT: 91

Explored 5189 nodes (161054 simplex iterations) in 120.06 seconds
Thread count was 12 (of 12 available processors)

Solution count 0

Time limit reached
Best objective -, best bound 4.925148363195e+02, gap -

Gurobi 9.1.0 (win64) logging started Fri Dec 18 13:33:18 2020

Changed value of parameter LogFile to log/S76D6_heu.log
   Prev:   Default: 
Gurobi Optimizer version 9.1.0 build v9.1.0rc0 (win64)
Thread count: 6 physical cores, 12 logical processors, using up to 12 threads
Optimize a model with 114875 rows, 57835 columns and 452260 nonzeros
Model fingerprint: 0x2699212e
Variable types: 75 continuous, 57760 integer (57760 binary)
Coefficient statistics:
  Matrix range     [1e+00, 8e+01]
  Objective range  [2e+00, 9e+01]
  Bounds range     [1e+00, 1e+00]
  RHS range        [1e+00, 8e+01]
Presolve removed 58520 rows and 750 columns
Presolve time: 0.34s
Presolved: 56355 rows, 57085 columns, 391520 nonzeros
Variable types: 75 continuous, 57010 integer (57000 binary)

Deterministic concurrent LP optimizer: primal and dual simplex
Showing first log only...

Concurrent spin time: 0.02s

Solved with dual simplex

Root relaxation: objective 4.855258e+02, 1330 iterations, 0.21 seconds

    Nodes    |    Current Node    |     Objective Bounds      |     Work
 Expl Unexpl |  Obj  Depth IntInf | Incumbent    BestBd   Gap | It/Node Time

     0     0  485.52580    0  154          -  485.52580      -     -    1s
     0     0  485.52580    0  154          -  485.52580      -     -    6s
     0     0  485.52580    0  154          -  485.52580      -     -    9s
     0     0  485.52580    0  154          -  485.52580      -     -   11s
     0     0  485.52580    0  154          -  485.52580      -     -   14s
     0     0  485.52580    0  152          -  485.52580      -     -   14s
H    0     0                    4010.2116993  485.52580  87.9%     -   14s
     0     0  485.52580    0  150 4010.21170  485.52580  87.9%     -   15s
H    0     0                    2098.0164493  492.44303  76.5%     -   38s
     0     2  492.44303    0  150 2098.01645  492.44303  76.5%     -   39s
     1     4  492.44303    1  150 2098.01645  492.44303  76.5%   292   40s
H   31    38                    1688.2752334  492.44303  70.8%   102   45s
    61    67  494.62856    8  150 1688.27523  492.44303  70.8%  88.5   53s
H   63    67                    1672.2111831  492.44303  70.6%  85.7   53s
H   65    67                    1460.9680689  492.44303  66.3%  83.5   53s
H   77    79                    1044.3338753  492.44303  52.8%  83.1   89s
H   80    79                    1039.7359099  492.44303  52.6%  81.6   89s
H   81    79                     994.2295031  492.44303  50.5%  80.8   89s
    83    91  494.16318   10  148  994.22950  492.44303  50.5%  83.4   90s
   173   183  494.33060   24  139  994.22950  492.44303  50.5%  54.4   95s
   285   291  502.10841   34  123  994.22950  492.44303  50.5%  47.3  100s
   357   368  503.50388   53  133  994.22950  492.44303  50.5%  47.5  105s
   450   459  504.20906   66  130  994.22950  492.44303  50.5%  45.8  110s
H  497   491                     954.7014828  492.44303  48.4%  44.8  119s
   507   496  492.44303   79  152  954.70148  492.44303  48.4%  44.7  120s

Cutting planes:
  Learned: 4
  Gomory: 35
  MIR: 238
  RLT: 79

Explored 512 nodes (27042 simplex iterations) in 120.10 seconds
Thread count was 12 (of 12 available processors)

Solution count 9: 954.701 994.23 1039.74 ... 4010.21

Time limit reached
Best objective 9.547014828016e+02, best bound 4.924430338026e+02, gap 48.4192%
